








































































































18 6 24 69 2 54 37 36 41 
48 30 47 71 11 70 21 7 
9 28 66 63 4 67 29 1 
60 52 35 17 3 10 34 31 
64 5 33 26 42 19 44 
27 59 32 55 62 50 8 58 
56 72 46 13 40 0 12 25 
61 15 49 68 16 75 22 74 
38 39 53 65 45 
76 20 57 43 73 14 23 51 
